INCAR for CISTAR ZEOLITE LATTICE OPTIMIZATIONS
EDIFFG = 1e-06
EDIFF = 1e-08
ENCUT = 800
NSW = 1000
IBRION = 1
SIGMA = 0.1
LREAL = A
ISMEAR = 0
LWAVE = .FALSE.
LCHARG = .FALSE.
PREC = Accurate
ISIF = 3
# NPAR = X 