INCAR for CISTAR ZEOLITE LATTICE OPTIMIZATIONS
EDIFFG = 1e-06
EDIFF = 1e-08
ENCUT = 800
NSW = 1000
IBRION = 1
LREAL = A
LWAVE = .FALSE.
LCHARG = .FALSE.
PREC = Accurate
ISIF = 3
